p cnf 14 64
9 10 13 0
-2 5 -7 0
3 -4 -12 0
1 -5 7 0
3 11 -14 0
6 -9 12 0
-6 -8 10 0
-1 -3 -6 0
-5 -9 10 0
-3 -9 12 0
-2 9 10 0
5 -7 9 0
-4 -6 14 0
2 -3 -10 0
-6 -10 -11 0
8 -10 -11 0
-5 8 14 0
1 -7 -9 0
-3 -10 12 0
-2 -5 -7 0
3 -4 -6 0
-1 5 -9 0
2 7 -10 0
-7 11 -12 0
5 8 -12 0
4 6 -8 0
4 8 -11 0
2 -4 -5 0
-8 -12 -13 0
1 4 -7 0
9 -11 13 0
2 11 -14 0
2 -3 12 0
-2 11 14 0
5 8 12 0
6 -12 14 0
-4 10 -11 0
3 5 -7 0
-1 2 7 0
-2 8 -14 0
2 5 -13 0
-3 -4 9 0
3 -5 -8 0
-5 11 13 0
-5 8 -12 0
9 -12 -14 0
2 5 -8 0
1 12 14 0
7 11 -12 0
-2 -5 -11 0
2 -5 -11 0
1 3 11 0
-2 -4 -6 0
-2 -5 8 0
-1 -6 -14 0
-1 2 12 0
3 -8 -14 0
4 -5 11 0
5 13 14 0
9 -12 -13 0
-4 -11 13 0
6 -9 -13 0
-4 10 13 0
-1 -12 -13 0
